c Generated map
c Size: 8 * 8, weights in range: 1 to 10, walls: True, with ratio 0.1
c dim 7 of 9
c
p sp 64 91
c graph contains 64 nodes and 91 arcs
c
a 1 9 8
a 9 1 8
a 1 2 2
a 2 1 2
a 2 10 2
a 10 2 2
a 2 3 4
a 3 2 4
a 3 11 7
a 11 3 7
a 3 4 3
a 4 3 3
a 4 12 3
a 12 4 3
a 4 5 2
a 5 4 2
a 5 13 10
a 13 5 10
a 5 6 9
a 6 5 9
a 6 14 7
a 14 6 7
a 8 16 6
a 16 8 6
a 9 17 1
a 17 9 1
a 9 10 6
a 10 9 6
a 10 18 1
a 18 10 1
a 10 11 2
a 11 10 2
a 11 19 7
a 19 11 7
a 11 12 7
a 12 11 7
a 12 20 9
a 20 12 9
a 12 13 8
a 13 12 8
a 13 21 10
a 21 13 10
a 13 14 6
a 14 13 6
a 14 22 1
a 22 14 1
a 14 15 2
a 15 14 2
a 15 23 6
a 23 15 6
a 15 16 7
a 16 15 7
a 16 24 4
a 24 16 4
a 17 25 5
a 25 17 5
a 17 18 2
a 18 17 2
a 18 26 7
a 26 18 7
a 18 19 3
a 19 18 3
a 19 27 9
a 27 19 9
a 19 20 6
a 20 19 6
a 20 28 3
a 28 20 3
a 20 21 9
a 21 20 9
a 21 29 2
a 29 21 2
a 21 22 4
a 22 21 4
a 22 30 8
a 30 22 8
a 22 23 8
a 23 22 8
a 23 31 9
a 31 23 9
a 23 24 9
a 24 23 9
a 25 33 4
a 33 25 4
a 25 26 7
a 26 25 7
a 26 34 10
a 34 26 10
a 26 27 3
a 27 26 3
a 27 35 2
a 35 27 2
a 27 28 2
a 28 27 2
a 28 36 8
a 36 28 8
a 28 29 4
a 29 28 4
a 29 37 3
a 37 29 3
a 29 30 6
a 30 29 6
a 30 38 8
a 38 30 8
a 30 31 10
a 31 30 10
a 31 39 9
a 39 31 9
a 33 41 3
a 41 33 3
a 33 34 9
a 34 33 9
a 34 35 9
a 35 34 9
a 35 43 1
a 43 35 1
a 35 36 6
a 36 35 6
a 36 37 10
a 37 36 10
a 37 45 3
a 45 37 3
a 37 38 6
a 38 37 6
a 38 39 7
a 39 38 7
a 39 47 4
a 47 39 4
a 39 40 5
a 40 39 5
a 40 48 10
a 48 40 10
a 41 49 10
a 49 41 10
a 43 51 7
a 51 43 7
a 45 53 9
a 53 45 9
a 47 55 1
a 55 47 1
a 47 48 7
a 48 47 7
a 48 56 4
a 56 48 4
a 49 57 7
a 57 49 7
a 49 50 7
a 50 49 7
a 50 51 4
a 51 50 4
a 51 59 10
a 59 51 10
a 51 52 1
a 52 51 1
a 52 60 5
a 60 52 5
a 52 53 6
a 53 52 6
a 53 61 9
a 61 53 9
a 53 54 9
a 54 53 9
a 54 62 8
a 62 54 8
a 54 55 10
a 55 54 10
a 55 63 5
a 63 55 5
a 55 56 7
a 56 55 7
a 56 64 8
a 64 56 8
a 59 60 1
a 60 59 1
a 60 61 10
a 61 60 10
a 61 62 6
a 62 61 6
a 62 63 1
a 63 62 1
a 63 64 8
a 64 63 8
